32      4       
10      10      10      10      
0       0       0       0       0       12      2       3       9       14      15      16      17      18      28      29      30      31      
5       1       1       0       1       7       4       8       10      13      25      26      27      
8       6       0       1       7       2       5       11      
10      2       4       4       0       5       11      20      21      23      24      
7       4       0       5       3       2       6       22      
9       0       6       3       4       1       7       
5       5       4       0       4       2       10      20      
9       6       0       3       4       2       12      21      
3       5       5       0       1       2       20      23      
10      3       7       2       0       1       19      
8       4       5       0       6       1       19      
3       2       1       0       4       1       20      
10      0       2       6       5       1       21      
6       4       0       5       4       1       22      
6       4       3       0       2       1       21      
8       5       5       7       0       1       21      
1       5       0       4       3       1       19      
6       7       0       4       5       1       19      
9       3       5       2       0       1       32      
5       5       6       9       0       1       32      
7       3       5       0       4       1       32      
3       6       0       4       5       1       32      
5       4       4       3       0       1       32      
6       4       2       3       0       1       32      
5       4       2       0       4       1       32      
10      1       5       2       0       1       32      
7       0       5       7       5       1       32      
5       4       5       0       5       1       32      
5       0       2       5       4       1       32      
3       5       0       2       3       1       32      
3       2       0       3       5       1       32      
0       0       0       0       0       0       
